(set-option :produce-unsat-cores true)
(set-logic QF_UF)
(declare-sort V 0)
(declare-sort S 0)
(declare-fun x () S)
(declare-fun a () V)
(declare-fun f (S) V)
(assert (not (= (not (= (f x) a)) (not (= a (f x))))))
(check-sat)